1111100 AB
360 389 418 449 481 513 543 573 603 633 663 693 723 753 782 811 841 871 901 931 962 994 1026 1058 1090 1121 1152 1184 1216 1248 1280 1330 1380
1111100 BA
382 411 446 477 509 541 568 598 628 658 688 718 748 778 807 836 866 896 926 956 992 1024 1056 1087 1119 1150 1181 1213 1245 1273 1302 1352 1402
0000011 AB
360 389 418 449 481 513 543 573 603 633 663 693 723 753 782 811 841 871 901 931 962 994 1026 1058 1090 1121 1152 1184 1216 1248 1280 1330 1380
0000011 BA
382 411 446 477 509 541 568 598 628 658 688 718 748 778 807 836 866 896 926 956 992 1024 1056 1087 1119 1150 1181 1213 1245 1273 1302 1352 1402
